proyfinal/src/viki/013/experimentInOfficeAgust.take6.output/4403e347-0c7c-4cf5-a2b6-e3c4ce5a746f.als.dat
{'cnf.clauses': '118081',
 'cnf.totvars': '69608',
 'conflict literals': '17',
 'conflicts': '12',
 'decisions': '1463',
 'memused.mb': '16.67',
 'outcome': 'UNSAT',
 'propagations': '36407',
 'restarts': '1',
 'solver.msecs': 34,
 'task.msecs': 131}
