proyfinal/src/viki/013/experimentInOfficeAgust.take6.output/4403e347-0c7c-4cf5-a2b6-e3c4ce5a746f.als.out
Reading from standard input... Use '--help' for help.
============================[ Problem Statistics ]=============================
|                                                                             |
|  Number of variables:         69608                                         |
|  Number of clauses:          118081                                         |
|  Parse time:                   0.03 s                                       |
|                                                                             |
============================[ Search Statistics ]==============================
| Conflicts |          ORIGINAL         |          LEARNT          | Progress |
|           |    Vars  Clauses Literals |    Limit  Clauses Lit/Cl |          |
===============================================================================
===============================================================================
restarts              : 1
conflicts             : 12             (353 /sec)
decisions             : 1463           (0.00 % random) (43015 /sec)
propagations          : 36407          (1070448 /sec)
conflict literals     : 17             (10.53 % deleted)
Memory used           : 16.67 MB
CPU time              : 0.034011 s

UNSATISFIABLE
